3 20
6 3 12
0 7 20
0 3 14
3 0 0
2 8 13
0 3 13
3 3 6
8 10 13
10 5 11
1 0 12
10 8 5
4 1 15
1 13 2
10 7 18
6 13 18
10 7 13
3 8 15
1 9 9
9 11 19
0 10 18
3 7 9
1 8 16
8 0 16
9 13 3
8 0 15
8 1 6
5 0 1
1 0 11
2 15 17
0 11 16
10 12 16
2 10 15
2 11 0
9 7 6
8 6 3
8 3 4
3 0 17
4 14 14
0 9 10
10 10 5
6 10 7
4 9 10
4 12 0
6 5 2
9 6 13
5 15 9
3 10 19
3 7 18
1 5 11
3 0 8
10 4 6
0 9 1
10 1 4
2 1 6
7 13 11
6 2 9
2 6 7
7 3 2
1 4 7
10 14 14
